
Gurobi 11.0.2 (linux64, gurobi_cl) logging started Mon Dec 22 18:18:50 2025

Set parameter TokenServer to value "licsrv.iti.kit.edu"
Set parameter LogFile to value "gurobi.log"
Using license file /opt/gurobi/linux64/../gurobi.lic
